% From JaCoP's nonogramRepository/data133.nin
 rows = 25;
 row_rule_len = 3;
 row_rules = array2d(1..rows, 1..row_rule_len, 
[
 0,0,4,
 0,0,9,
 0,0,11,
 0,0,11,
 0,0,11,
 0,4,3,
 0,4,3,
 0,4,2,
 0,0,4,
 0,2,2,
 0,0,4,
 0,0,4,
 0,2,1,
 0,0,3,
 0,0,10,
 0,3,6,
 0,0,15,
 2,13,3,
 0,0,19,
 0,0,17,
 0,0,15,
 0,0,14,
 0,0,12,
 0,0,11,
 0,3,3
]);

 cols = 22;
 col_rule_len = 4;
 col_rules = array2d(1..cols, 1..col_rule_len, 
[
 0,0,0,4,
 0,0,0,6,
 0,0,7,1,
 0,0,8,2,
 0,0,8,1,
 0,4,3,6,
 0,4,3,10,
 0,4,2,10,
 0,0,4,11,
 4,2,1,8,
 5,4,1,8,
 4,4,1,8,
 2,2,1,8,
 0,0,0,10,
 0,0,0,11,
 0,0,0,12,
 0,0,0,12,
 0,0,0,11,
 0,0,2,4,
 0,0,0,5,
 0,0,0,3,
 0,0,0,3
]);

